toybox/dimacs_unique/toybox-2019-09-04_15-59-23.dimacs
c 1 CONFIG_HELP
c 2 CONFIG_DHCPD
c 3 CONFIG_CHCON
c 4 CONFIG_TOYBOX_LIBCRYPTO
c 5 CONFIG_TCPSVD
c 6 CONFIG_TIME
c 7 CONFIG_W
c 8 CONFIG_KLOGD_SOURCE_RING_BUFFER
c 9 CONFIG_SULOGIN
c 10 CONFIG_ID_Z
c 11 CONFIG_FGREP
c 12 CONFIG_SENDEVENT
c 13 CONFIG_MDEV_CONF
c 14 CONFIG_TOYBOX_PRLIMIT
c 15 CONFIG_NBD_CLIENT
c 16 CONFIG_LOAD_POLICY
c 17 CONFIG_MKDIR_Z
c 18 CONFIG_UNSHARE
c 19 CONFIG_TOYBOX_UID_SYS
c 20 CONFIG_EGREP
c 21 CONFIG_ID
c 22 CONFIG_SETENFORCE
c 23 CONFIG_RESTORECON
c 24 CONFIG_HELP_EXTRAS
c 25 CONFIG_BOOTCHARTD
c 26 CONFIG_LOGIN
c 27 CONFIG_KILL
c 28 CONFIG_ULIMIT
c 29 CONFIG_FSFREEZE
c 30 CONFIG_GREP
c 31 CONFIG_MKNOD_Z
c 32 CONFIG_TOYBOX_ICONV
c 33 CONFIG_LOG
c 34 CONFIG_MKE2FS_EXTENDED
c 35 CONFIG_WHO
c 36 CONFIG_TOYBOX_FIFREEZE
c 37 CONFIG_CP_PRESERVE
c 38 CONFIG_CP
c 39 CONFIG_TOYBOX_MUSL_NOMMU_IS_BROKEN
c 40 CONFIG_RUNCON
c 41 CONFIG_LSPCI_TEXT
c 42 CONFIG_TOYBOX_LSM_NONE
c 43 CONFIG_MKE2FS_GEN
c 44 CONFIG_CAT
c 45 CONFIG_TOYBOX_SHADOW
c 46 CONFIG_SHA256SUM
c 47 CONFIG_KLOGD
c 48 CONFIG_TOYBOX_SELINUX
c 49 CONFIG_MKE2FS
c 50 CONFIG_LSPCI
c 51 CONFIG_OPENVT
c 52 CONFIG_ICONV
c 53 CONFIG_GETENFORCE
c 54 CONFIG_TOYBOX_FORK
c 55 CONFIG_MKFIFO_Z
c 56 CONFIG_TOYBOX_FLOAT
c 57 CONFIG_MKNOD
c 58 CONFIG_TOYBOX_HELP
c 59 CONFIG_PASSWD
c 60 CONFIG_FALLOCATE
c 61 CONFIG_SHA224SUM
c 62 CONFIG_TOYBOX_UID_USR
c 63 CONFIG_TOYBOX_CONTAINER
c 64 CONFIG_NETCAT_LISTEN
c 65 CONFIG_MKE2FS_LABEL
c 66 CONFIG_NSENTER
c 67 CONFIG_SEQ
c 68 CONFIG_SORT_FLOAT
c 69 CONFIG_SU
c 70 CONFIG_CD
c 71 CONFIG_MKPASSWD
c 72 CONFIG_TOYBOX_ANDROID_SCHEDPOLICY
c 73 CONFIG_PASSWD_SAD
c 74 CONFIG_EXIT
c 75 CONFIG_NETCAT
c 76 CONFIG_SHA384SUM
c 77 CONFIG_UPTIME
c 78 CONFIG_CRONTAB
c 79 CONFIG_MKDIR
c 80 CONFIG_MKFIFO
c 81 CONFIG_TOYBOX_ON_ANDROID
c 82 CONFIG_TOYBOX_SMACK
c 83 CONFIG_TOYBOX
c 84 CONFIG_MKE2FS_JOURNAL
c 85 CONFIG_TOYBOX_UTMPX
c 86 CONFIG_SHA512SUM
c 87 CONFIG_CAT_V
c 88 CONFIG_DEBUG_DHCP
c 89 CONFIG_TOYBOX_FALLOCATE
c 90 CONFIG_TOYBOX_GETRANDOM
c 91 CONFIG_KILLALL5
c 92 CONFIG_MDEV
c 93 CONFIG_TOYBOX_HELP_DASHDASH
c 94 __Root__
p cnf 94 184
94 0
-54 94 0
-78 94 0
-10 94 0
-21 94 0
-42 94 0
-11 94 0
-30 94 0
-35 94 0
-85 94 0
-48 94 0
-82 94 0
-56 94 0
-6 94 0
-87 94 0
-44 94 0
-24 94 0
-1 94 0
-89 94 0
-60 94 0
-14 94 0
-45 94 0
-69 94 0
-31 94 0
-57 94 0
-27 94 0
-91 94 0
-62 94 0
-58 94 0
-34 94 0
-49 94 0
-81 94 0
-33 94 0
-17 94 0
-59 94 0
-83 94 0
-26 94 0
-28 94 0
-47 94 0
-8 94 0
-52 94 0
-32 94 0
-20 94 0
-16 94 0
-70 94 0
-72 94 0
-90 94 0
-63 94 0
-46 94 0
-4 94 0
-9 94 0
-61 94 0
-73 94 0
-86 94 0
-80 94 0
-55 94 0
-12 94 0
-93 94 0
-36 94 0
-43 94 0
-3 94 0
-53 94 0
-40 94 0
-13 94 0
-92 94 0
-23 94 0
-7 94 0
-38 94 0
-37 94 0
-71 94 0
-68 94 0
-41 94 0
-50 94 0
-25 94 0
-66 94 0
-51 94 0
-15 94 0
-76 94 0
-67 94 0
-77 94 0
-75 94 0
-64 94 0
-5 94 0
-84 94 0
-19 94 0
-39 94 0
-18 94 0
-2 94 0
-88 94 0
-79 94 0
-29 94 0
-74 94 0
-22 94 0
-65 94 0
54 -78 0
10 -21 42 0
11 -30 0
-35 85 0
42 48 82 0
-6 56 0
44 -87 0
1 -24 0
-60 89 0
14 0
45 -69 0
31 42 -57 0
27 -91 0
62 0
-1 58 0
-34 49 0
-33 81 0
-17 -42 0
85 0
45 -59 0
-81 0
1 -24 83 0
-26 45 0
14 -28 0
-42 -48 0
-8 47 0
32 -52 0
20 -30 0
-16 48 0
-70 0
-72 0
90 0
-20 30 0
63 0
4 -46 0
-9 45 0
4 -61 0
59 -73 0
4 -86 0
-55 80 0
-42 -82 0
-24 83 0
-12 81 0
58 -93 0
36 0
-43 49 0
-3 48 0
48 -53 0
-40 48 0
-13 92 0
-10 21 0
-23 48 0
-7 85 0
-37 38 0
-31 -42 0
-71 -81 0
56 -68 0
89 0
45 0
-48 -82 0
-41 50 0
-25 54 0
63 -66 0
-51 54 0
-15 54 0
4 -76 0
56 -67 0
-77 85 0
-64 75 0
-42 -55 0
-5 54 0
49 -84 0
19 0
39 54 0
-11 30 0
-18 63 0
2 -88 0
-39 -54 0
83 0
-17 79 0
-56 68 0
32 0
42 55 -80 0
-29 36 0
-10 -42 0
-74 0
17 42 -79 0
-22 48 0
49 -65 0
-31 57 0
